
  32    1
  10

   0   0   5 2 3 4 6 11 
  10   2   4 12 10 8 7 
   1   3   1 5 
   6   6   1 5 
   7   6   3 14 10 9 
   8   6   3 14 10 9 
   1   4   2 14 9 
  10   3   1 9 
   2   2   4 18 17 15 13 
   4  10   4 18 17 15 13 
   8   6   4 18 17 15 13 
   8   7   4 18 17 16 15 
   9   7   2 21 16 
   3   7   2 21 16 
   7   6   4 27 22 20 19 
   2   8   4 27 23 22 20 
   8  10   3 27 22 21 
   7   4   3 25 23 22 
   9   5   4 31 25 24 23 
   6   6   4 31 26 25 24 
   8   7   4 31 26 25 24 
   4   4   4 31 29 26 24 
  10   5   3 30 29 26 
   3   5   2 30 28 
   3   4   2 29 28 
   5   5   1 28 
  10  10   1 28 
   5   8   1 32
   3   8   1 32
   7  10   1 32
  10   6   1 32
   0   0   0 
